\ Model prob_79
\ LP format - for model browsing. Use MPS format to capture full model detail.
Minimize
  151000 open[0] + 192000 open[1] + 114000 open[2] + 171000 open[3]
   + 5 x[0,0] + 5 x[0,1] + 2 x[0,2] + 3 x[0,3] + 3 x[0,4] + 3 x[0,5]
   + 5 x[0,6] + 4 x[0,7] + 3 x[1,0] + 5 x[1,1] + 2 x[1,2] + 4 x[1,3]
   + 2 x[1,4] + 4 x[1,5] + 5 x[1,6] + x[1,7] + 4 x[2,0] + 2 x[2,1]
   + 5 x[2,2] + 4 x[2,3] + x[2,4] + x[2,5] + 3 x[2,6] + 3 x[2,7] + 2 x[3,0]
   + 4 x[3,1] + 4 x[3,2] + 3 x[3,3] + 4 x[3,4] + 4 x[3,5] + x[3,6]
   + 3 x[3,7]
Subject To
 R0: x[0,0] + x[1,0] + x[2,0] + x[3,0] >= 884
 R1: x[0,1] + x[1,1] + x[2,1] + x[3,1] >= 420
 R2: x[0,2] + x[1,2] + x[2,2] + x[3,2] >= 566
 R3: x[0,3] + x[1,3] + x[2,3] + x[3,3] >= 673
 R4: x[0,4] + x[1,4] + x[2,4] + x[3,4] >= 787
 R5: x[0,5] + x[1,5] + x[2,5] + x[3,5] >= 1000
 R6: x[0,6] + x[1,6] + x[2,6] + x[3,6] >= 715
 R7: x[0,7] + x[1,7] + x[2,7] + x[3,7] >= 413
 R8: - 1041 open[0] + x[0,0] + x[0,1] + x[0,2] + x[0,3] + x[0,4] + x[0,5]
   + x[0,6] + x[0,7] <= 0
 R9: - 1576 open[1] + x[1,0] + x[1,1] + x[1,2] + x[1,3] + x[1,4] + x[1,5]
   + x[1,6] + x[1,7] <= 0
 R10: - 1364 open[2] + x[2,0] + x[2,1] + x[2,2] + x[2,3] + x[2,4] + x[2,5]
   + x[2,6] + x[2,7] <= 0
 R11: - 1697 open[3] + x[3,0] + x[3,1] + x[3,2] + x[3,3] + x[3,4] + x[3,5]
   + x[3,6] + x[3,7] <= 0
Bounds
Binaries
 open[0] open[1] open[2] open[3]
End
